WARNING: for repeatability, setting FPU to use double precision
============================[ Problem Statistics ]=============================
|                                                                             |
|  Number of variables:           800                                         |
|  Number of clauses:           33758                                         |
|  Parse time:                   0.01 s                                       |
|                                                                             |
c ============================[ Search Statistics ]==============================
c | Conflicts |          ORIGINAL         |          LEARNT          | Progress |
c |           |    Vars  Clauses Literals |    Limit  Clauses Lit/Cl |          |
c ===============================================================================
c Switched to VSIDS.
c Switched to LRB.
c Switched to VSIDS.
c Switched to LRB.
c Switched to VSIDS.
c Switched to LRB.
c Switched to VSIDS.
c Switched to LRB.
c Switched to VSIDS.
c Switched to LRB.
c Switched to VSIDS.
c Switched to LRB.
c Switched to VSIDS.
c ===============================================================================
restarts                  : 95385
conflicts                 : 18514621       (5252 /sec)
decisions                 : 38916364       (0.00 % random) (11039 /sec)
propagations              : 873640250      (247810 /sec)
conflict literals         : 5058208451     (8.95 % deleted)

conflicts w/ DIP found    : 11346256       (61.28 % of conflicts)
conflicts w/ dangerous DIP: 0              (0.00 % of conflicts)
conflicts w/ DIP-learning : 5321           (0.03 % of conflicts)
decisions on ext vars     : 557            (0.00 % of decisions)
total ext vars            : 1112        
tried delete ext vars     : 249         
deleted ext vars          : 249         
max ext vars              : 863         

Memory used               : 361.00 MB
CPU time                  : 3525.45 s
DIP computation time      : 97.9163 s (2.78 % of total time)
ER_sel time               : 35.3234 s
ER_add time               : 0.006501 s
ER_delC time              : 0 s
ER_delV time              : 0.52588 s
ER_sub time               : 37.914 s
ER_stat time              : 0 s

INDETERMINATE
